NAME : portcgen-24-13
COMMENT : portcgen N=24, seed=13
TYPE : TSP
DIMENSION : 24
EDGE_WEIGHT_TYPE : EUC_2D
NODE_COORD_SECTION
1 178556 -133183
2 -166077 52249
3 211048 -168360
4 108100 213649
5 -103368 52283
6 112669 929222
7 204291 167119
8 -212187 -132339
9 258359 -180886
10 -92582 -238372
11 53176 -63556
12 -103421 -83790
13 -118259 52841
14 -283297 -124068
15 -141562 -83295
16 59261 -112355
17 252834 243583
18 37307 -153425
19 27717 60313
20 -174575 440252
21 -175895 -232639
22 -388521 259071
23 -271766 102606
24 -49608 -157076
